g9 0 1 0 0 20170614 0 4 0 240	# problem qr3dls
 155 0 1 0 0	# vars, constraints, objectives, ranges, eqns
 0 1	# nonlinear constraints, objectives
 0 0	# network constraints: nonlinear, linear
 0 155 0	# nonlinear vars in constraints, objectives, both
 0 0 0 1	# linear network variables; functions; arith, flags
 0 0 0 0 0	# discrete variables: binary, integer, nonlinear (b,c,o)
 0 155	# nonzeros in Jacobian, gradients
 0 0	# max name lengths: constraints, variables
 0 0 0 0 0	# common exprs: b,c,o,c1,o1
b
3
3
3
3
3
3
3
3
3
3
3
3
3
3
3
3
3
3
3
3
3
3
3
3
3
3
3
3
3
3
3
3
3
3
3
3
3
3
3
3
3
3
3
3
3
3
3
3
3
3
3
3
3
3
3
3
3
3
3
3
3
3
3
3
3
3
3
3
3
3
3
3
3
3
3
3
3
3
3
3
3
3
3
3
3
3
3
3
3
3
3
3
3
3
3
3
3
3
3
3
2 0
3
3
3
3
3
3
3
3
3
2 0
3
3
3
3
3
3
3
3
2 0
3
3
3
3
3
3
3
2 0
3
3
3
3
3
3
2 0
3
3
3
3
3
2 0
3
3
3
3
2 0
3
3
3
2 0
3
3
2 0
3
2 0
x28
0 1
11 1
22 1
33 1
44 1
55 1
66 1
77 1
88 1
99 1
100 0.2
110 0.4
111 -0.1
119 0.6
120 -0.2
127 0.8
128 -0.3
134 1
135 -0.4
140 1.2
141 -0.5
145 1.4
146 -0.6
149 1.6
150 -0.7
152 1.8
153 -0.8
154 20
O0 0
o54
155
o2
o0
n-1
o54
10
o2
v0
v0
o2
v1
v1
o2
v2
v2
o2
v3
v3
o2
v4
v4
o2
v5
v5
o2
v6
v6
o2
v7
v7
o2
v8
v8
o2
v9
v9
o0
n-1
o54
10
o2
v0
v0
o2
v1
v1
o2
v2
v2
o2
v3
v3
o2
v4
v4
o2
v5
v5
o2
v6
v6
o2
v7
v7
o2
v8
v8
o2
v9
v9
o2
o54
10
o2
v0
v10
o2
v1
v11
o2
v2
v12
o2
v3
v13
o2
v4
v14
o2
v5
v15
o2
v6
v16
o2
v7
v17
o2
v8
v18
o2
v9
v19
o54
10
o2
v0
v10
o2
v1
v11
o2
v2
v12
o2
v3
v13
o2
v4
v14
o2
v5
v15
o2
v6
v16
o2
v7
v17
o2
v8
v18
o2
v9
v19
o2
o54
10
o2
v0
v20
o2
v1
v21
o2
v2
v22
o2
v3
v23
o2
v4
v24
o2
v5
v25
o2
v6
v26
o2
v7
v27
o2
v8
v28
o2
v9
v29
o54
10
o2
v0
v20
o2
v1
v21
o2
v2
v22
o2
v3
v23
o2
v4
v24
o2
v5
v25
o2
v6
v26
o2
v7
v27
o2
v8
v28
o2
v9
v29
o2
o54
10
o2
v0
v30
o2
v1
v31
o2
v2
v32
o2
v3
v33
o2
v4
v34
o2
v5
v35
o2
v6
v36
o2
v7
v37
o2
v8
v38
o2
v9
v39
o54
10
o2
v0
v30
o2
v1
v31
o2
v2
v32
o2
v3
v33
o2
v4
v34
o2
v5
v35
o2
v6
v36
o2
v7
v37
o2
v8
v38
o2
v9
v39
o2
o54
10
o2
v0
v40
o2
v1
v41
o2
v2
v42
o2
v3
v43
o2
v4
v44
o2
v5
v45
o2
v6
v46
o2
v7
v47
o2
v8
v48
o2
v9
v49
o54
10
o2
v0
v40
o2
v1
v41
o2
v2
v42
o2
v3
v43
o2
v4
v44
o2
v5
v45
o2
v6
v46
o2
v7
v47
o2
v8
v48
o2
v9
v49
o2
o54
10
o2
v0
v50
o2
v1
v51
o2
v2
v52
o2
v3
v53
o2
v4
v54
o2
v5
v55
o2
v6
v56
o2
v7
v57
o2
v8
v58
o2
v9
v59
o54
10
o2
v0
v50
o2
v1
v51
o2
v2
v52
o2
v3
v53
o2
v4
v54
o2
v5
v55
o2
v6
v56
o2
v7
v57
o2
v8
v58
o2
v9
v59
o2
o54
10
o2
v0
v60
o2
v1
v61
o2
v2
v62
o2
v3
v63
o2
v4
v64
o2
v5
v65
o2
v6
v66
o2
v7
v67
o2
v8
v68
o2
v9
v69
o54
10
o2
v0
v60
o2
v1
v61
o2
v2
v62
o2
v3
v63
o2
v4
v64
o2
v5
v65
o2
v6
v66
o2
v7
v67
o2
v8
v68
o2
v9
v69
o2
o54
10
o2
v0
v70
o2
v1
v71
o2
v2
v72
o2
v3
v73
o2
v4
v74
o2
v5
v75
o2
v6
v76
o2
v7
v77
o2
v8
v78
o2
v9
v79
o54
10
o2
v0
v70
o2
v1
v71
o2
v2
v72
o2
v3
v73
o2
v4
v74
o2
v5
v75
o2
v6
v76
o2
v7
v77
o2
v8
v78
o2
v9
v79
o2
o54
10
o2
v0
v80
o2
v1
v81
o2
v2
v82
o2
v3
v83
o2
v4
v84
o2
v5
v85
o2
v6
v86
o2
v7
v87
o2
v8
v88
o2
v9
v89
o54
10
o2
v0
v80
o2
v1
v81
o2
v2
v82
o2
v3
v83
o2
v4
v84
o2
v5
v85
o2
v6
v86
o2
v7
v87
o2
v8
v88
o2
v9
v89
o2
o54
10
o2
v0
v90
o2
v1
v91
o2
v2
v92
o2
v3
v93
o2
v4
v94
o2
v5
v95
o2
v6
v96
o2
v7
v97
o2
v8
v98
o2
v9
v99
o54
10
o2
v0
v90
o2
v1
v91
o2
v2
v92
o2
v3
v93
o2
v4
v94
o2
v5
v95
o2
v6
v96
o2
v7
v97
o2
v8
v98
o2
v9
v99
o2
o0
n-1
o54
10
o2
v10
v10
o2
v11
v11
o2
v12
v12
o2
v13
v13
o2
v14
v14
o2
v15
v15
o2
v16
v16
o2
v17
v17
o2
v18
v18
o2
v19
v19
o0
n-1
o54
10
o2
v10
v10
o2
v11
v11
o2
v12
v12
o2
v13
v13
o2
v14
v14
o2
v15
v15
o2
v16
v16
o2
v17
v17
o2
v18
v18
o2
v19
v19
o2
o54
10
o2
v10
v20
o2
v11
v21
o2
v12
v22
o2
v13
v23
o2
v14
v24
o2
v15
v25
o2
v16
v26
o2
v17
v27
o2
v18
v28
o2
v19
v29
o54
10
o2
v10
v20
o2
v11
v21
o2
v12
v22
o2
v13
v23
o2
v14
v24
o2
v15
v25
o2
v16
v26
o2
v17
v27
o2
v18
v28
o2
v19
v29
o2
o54
10
o2
v10
v30
o2
v11
v31
o2
v12
v32
o2
v13
v33
o2
v14
v34
o2
v15
v35
o2
v16
v36
o2
v17
v37
o2
v18
v38
o2
v19
v39
o54
10
o2
v10
v30
o2
v11
v31
o2
v12
v32
o2
v13
v33
o2
v14
v34
o2
v15
v35
o2
v16
v36
o2
v17
v37
o2
v18
v38
o2
v19
v39
o2
o54
10
o2
v10
v40
o2
v11
v41
o2
v12
v42
o2
v13
v43
o2
v14
v44
o2
v15
v45
o2
v16
v46
o2
v17
v47
o2
v18
v48
o2
v19
v49
o54
10
o2
v10
v40
o2
v11
v41
o2
v12
v42
o2
v13
v43
o2
v14
v44
o2
v15
v45
o2
v16
v46
o2
v17
v47
o2
v18
v48
o2
v19
v49
o2
o54
10
o2
v10
v50
o2
v11
v51
o2
v12
v52
o2
v13
v53
o2
v14
v54
o2
v15
v55
o2
v16
v56
o2
v17
v57
o2
v18
v58
o2
v19
v59
o54
10
o2
v10
v50
o2
v11
v51
o2
v12
v52
o2
v13
v53
o2
v14
v54
o2
v15
v55
o2
v16
v56
o2
v17
v57
o2
v18
v58
o2
v19
v59
o2
o54
10
o2
v10
v60
o2
v11
v61
o2
v12
v62
o2
v13
v63
o2
v14
v64
o2
v15
v65
o2
v16
v66
o2
v17
v67
o2
v18
v68
o2
v19
v69
o54
10
o2
v10
v60
o2
v11
v61
o2
v12
v62
o2
v13
v63
o2
v14
v64
o2
v15
v65
o2
v16
v66
o2
v17
v67
o2
v18
v68
o2
v19
v69
o2
o54
10
o2
v10
v70
o2
v11
v71
o2
v12
v72
o2
v13
v73
o2
v14
v74
o2
v15
v75
o2
v16
v76
o2
v17
v77
o2
v18
v78
o2
v19
v79
o54
10
o2
v10
v70
o2
v11
v71
o2
v12
v72
o2
v13
v73
o2
v14
v74
o2
v15
v75
o2
v16
v76
o2
v17
v77
o2
v18
v78
o2
v19
v79
o2
o54
10
o2
v10
v80
o2
v11
v81
o2
v12
v82
o2
v13
v83
o2
v14
v84
o2
v15
v85
o2
v16
v86
o2
v17
v87
o2
v18
v88
o2
v19
v89
o54
10
o2
v10
v80
o2
v11
v81
o2
v12
v82
o2
v13
v83
o2
v14
v84
o2
v15
v85
o2
v16
v86
o2
v17
v87
o2
v18
v88
o2
v19
v89
o2
o54
10
o2
v10
v90
o2
v11
v91
o2
v12
v92
o2
v13
v93
o2
v14
v94
o2
v15
v95
o2
v16
v96
o2
v17
v97
o2
v18
v98
o2
v19
v99
o54
10
o2
v10
v90
o2
v11
v91
o2
v12
v92
o2
v13
v93
o2
v14
v94
o2
v15
v95
o2
v16
v96
o2
v17
v97
o2
v18
v98
o2
v19
v99
o2
o0
n-1
o54
10
o2
v20
v20
o2
v21
v21
o2
v22
v22
o2
v23
v23
o2
v24
v24
o2
v25
v25
o2
v26
v26
o2
v27
v27
o2
v28
v28
o2
v29
v29
o0
n-1
o54
10
o2
v20
v20
o2
v21
v21
o2
v22
v22
o2
v23
v23
o2
v24
v24
o2
v25
v25
o2
v26
v26
o2
v27
v27
o2
v28
v28
o2
v29
v29
o2
o54
10
o2
v20
v30
o2
v21
v31
o2
v22
v32
o2
v23
v33
o2
v24
v34
o2
v25
v35
o2
v26
v36
o2
v27
v37
o2
v28
v38
o2
v29
v39
o54
10
o2
v20
v30
o2
v21
v31
o2
v22
v32
o2
v23
v33
o2
v24
v34
o2
v25
v35
o2
v26
v36
o2
v27
v37
o2
v28
v38
o2
v29
v39
o2
o54
10
o2
v20
v40
o2
v21
v41
o2
v22
v42
o2
v23
v43
o2
v24
v44
o2
v25
v45
o2
v26
v46
o2
v27
v47
o2
v28
v48
o2
v29
v49
o54
10
o2
v20
v40
o2
v21
v41
o2
v22
v42
o2
v23
v43
o2
v24
v44
o2
v25
v45
o2
v26
v46
o2
v27
v47
o2
v28
v48
o2
v29
v49
o2
o54
10
o2
v20
v50
o2
v21
v51
o2
v22
v52
o2
v23
v53
o2
v24
v54
o2
v25
v55
o2
v26
v56
o2
v27
v57
o2
v28
v58
o2
v29
v59
o54
10
o2
v20
v50
o2
v21
v51
o2
v22
v52
o2
v23
v53
o2
v24
v54
o2
v25
v55
o2
v26
v56
o2
v27
v57
o2
v28
v58
o2
v29
v59
o2
o54
10
o2
v20
v60
o2
v21
v61
o2
v22
v62
o2
v23
v63
o2
v24
v64
o2
v25
v65
o2
v26
v66
o2
v27
v67
o2
v28
v68
o2
v29
v69
o54
10
o2
v20
v60
o2
v21
v61
o2
v22
v62
o2
v23
v63
o2
v24
v64
o2
v25
v65
o2
v26
v66
o2
v27
v67
o2
v28
v68
o2
v29
v69
o2
o54
10
o2
v20
v70
o2
v21
v71
o2
v22
v72
o2
v23
v73
o2
v24
v74
o2
v25
v75
o2
v26
v76
o2
v27
v77
o2
v28
v78
o2
v29
v79
o54
10
o2
v20
v70
o2
v21
v71
o2
v22
v72
o2
v23
v73
o2
v24
v74
o2
v25
v75
o2
v26
v76
o2
v27
v77
o2
v28
v78
o2
v29
v79
o2
o54
10
o2
v20
v80
o2
v21
v81
o2
v22
v82
o2
v23
v83
o2
v24
v84
o2
v25
v85
o2
v26
v86
o2
v27
v87
o2
v28
v88
o2
v29
v89
o54
10
o2
v20
v80
o2
v21
v81
o2
v22
v82
o2
v23
v83
o2
v24
v84
o2
v25
v85
o2
v26
v86
o2
v27
v87
o2
v28
v88
o2
v29
v89
o2
o54
10
o2
v20
v90
o2
v21
v91
o2
v22
v92
o2
v23
v93
o2
v24
v94
o2
v25
v95
o2
v26
v96
o2
v27
v97
o2
v28
v98
o2
v29
v99
o54
10
o2
v20
v90
o2
v21
v91
o2
v22
v92
o2
v23
v93
o2
v24
v94
o2
v25
v95
o2
v26
v96
o2
v27
v97
o2
v28
v98
o2
v29
v99
o2
o0
n-1
o54
10
o2
v30
v30
o2
v31
v31
o2
v32
v32
o2
v33
v33
o2
v34
v34
o2
v35
v35
o2
v36
v36
o2
v37
v37
o2
v38
v38
o2
v39
v39
o0
n-1
o54
10
o2
v30
v30
o2
v31
v31
o2
v32
v32
o2
v33
v33
o2
v34
v34
o2
v35
v35
o2
v36
v36
o2
v37
v37
o2
v38
v38
o2
v39
v39
o2
o54
10
o2
v30
v40
o2
v31
v41
o2
v32
v42
o2
v33
v43
o2
v34
v44
o2
v35
v45
o2
v36
v46
o2
v37
v47
o2
v38
v48
o2
v39
v49
o54
10
o2
v30
v40
o2
v31
v41
o2
v32
v42
o2
v33
v43
o2
v34
v44
o2
v35
v45
o2
v36
v46
o2
v37
v47
o2
v38
v48
o2
v39
v49
o2
o54
10
o2
v30
v50
o2
v31
v51
o2
v32
v52
o2
v33
v53
o2
v34
v54
o2
v35
v55
o2
v36
v56
o2
v37
v57
o2
v38
v58
o2
v39
v59
o54
10
o2
v30
v50
o2
v31
v51
o2
v32
v52
o2
v33
v53
o2
v34
v54
o2
v35
v55
o2
v36
v56
o2
v37
v57
o2
v38
v58
o2
v39
v59
o2
o54
10
o2
v30
v60
o2
v31
v61
o2
v32
v62
o2
v33
v63
o2
v34
v64
o2
v35
v65
o2
v36
v66
o2
v37
v67
o2
v38
v68
o2
v39
v69
o54
10
o2
v30
v60
o2
v31
v61
o2
v32
v62
o2
v33
v63
o2
v34
v64
o2
v35
v65
o2
v36
v66
o2
v37
v67
o2
v38
v68
o2
v39
v69
o2
o54
10
o2
v30
v70
o2
v31
v71
o2
v32
v72
o2
v33
v73
o2
v34
v74
o2
v35
v75
o2
v36
v76
o2
v37
v77
o2
v38
v78
o2
v39
v79
o54
10
o2
v30
v70
o2
v31
v71
o2
v32
v72
o2
v33
v73
o2
v34
v74
o2
v35
v75
o2
v36
v76
o2
v37
v77
o2
v38
v78
o2
v39
v79
o2
o54
10
o2
v30
v80
o2
v31
v81
o2
v32
v82
o2
v33
v83
o2
v34
v84
o2
v35
v85
o2
v36
v86
o2
v37
v87
o2
v38
v88
o2
v39
v89
o54
10
o2
v30
v80
o2
v31
v81
o2
v32
v82
o2
v33
v83
o2
v34
v84
o2
v35
v85
o2
v36
v86
o2
v37
v87
o2
v38
v88
o2
v39
v89
o2
o54
10
o2
v30
v90
o2
v31
v91
o2
v32
v92
o2
v33
v93
o2
v34
v94
o2
v35
v95
o2
v36
v96
o2
v37
v97
o2
v38
v98
o2
v39
v99
o54
10
o2
v30
v90
o2
v31
v91
o2
v32
v92
o2
v33
v93
o2
v34
v94
o2
v35
v95
o2
v36
v96
o2
v37
v97
o2
v38
v98
o2
v39
v99
o2
o0
n-1
o54
10
o2
v40
v40
o2
v41
v41
o2
v42
v42
o2
v43
v43
o2
v44
v44
o2
v45
v45
o2
v46
v46
o2
v47
v47
o2
v48
v48
o2
v49
v49
o0
n-1
o54
10
o2
v40
v40
o2
v41
v41
o2
v42
v42
o2
v43
v43
o2
v44
v44
o2
v45
v45
o2
v46
v46
o2
v47
v47
o2
v48
v48
o2
v49
v49
o2
o54
10
o2
v40
v50
o2
v41
v51
o2
v42
v52
o2
v43
v53
o2
v44
v54
o2
v45
v55
o2
v46
v56
o2
v47
v57
o2
v48
v58
o2
v49
v59
o54
10
o2
v40
v50
o2
v41
v51
o2
v42
v52
o2
v43
v53
o2
v44
v54
o2
v45
v55
o2
v46
v56
o2
v47
v57
o2
v48
v58
o2
v49
v59
o2
o54
10
o2
v40
v60
o2
v41
v61
o2
v42
v62
o2
v43
v63
o2
v44
v64
o2
v45
v65
o2
v46
v66
o2
v47
v67
o2
v48
v68
o2
v49
v69
o54
10
o2
v40
v60
o2
v41
v61
o2
v42
v62
o2
v43
v63
o2
v44
v64
o2
v45
v65
o2
v46
v66
o2
v47
v67
o2
v48
v68
o2
v49
v69
o2
o54
10
o2
v40
v70
o2
v41
v71
o2
v42
v72
o2
v43
v73
o2
v44
v74
o2
v45
v75
o2
v46
v76
o2
v47
v77
o2
v48
v78
o2
v49
v79
o54
10
o2
v40
v70
o2
v41
v71
o2
v42
v72
o2
v43
v73
o2
v44
v74
o2
v45
v75
o2
v46
v76
o2
v47
v77
o2
v48
v78
o2
v49
v79
o2
o54
10
o2
v40
v80
o2
v41
v81
o2
v42
v82
o2
v43
v83
o2
v44
v84
o2
v45
v85
o2
v46
v86
o2
v47
v87
o2
v48
v88
o2
v49
v89
o54
10
o2
v40
v80
o2
v41
v81
o2
v42
v82
o2
v43
v83
o2
v44
v84
o2
v45
v85
o2
v46
v86
o2
v47
v87
o2
v48
v88
o2
v49
v89
o2
o54
10
o2
v40
v90
o2
v41
v91
o2
v42
v92
o2
v43
v93
o2
v44
v94
o2
v45
v95
o2
v46
v96
o2
v47
v97
o2
v48
v98
o2
v49
v99
o54
10
o2
v40
v90
o2
v41
v91
o2
v42
v92
o2
v43
v93
o2
v44
v94
o2
v45
v95
o2
v46
v96
o2
v47
v97
o2
v48
v98
o2
v49
v99
o2
o0
n-1
o54
10
o2
v50
v50
o2
v51
v51
o2
v52
v52
o2
v53
v53
o2
v54
v54
o2
v55
v55
o2
v56
v56
o2
v57
v57
o2
v58
v58
o2
v59
v59
o0
n-1
o54
10
o2
v50
v50
o2
v51
v51
o2
v52
v52
o2
v53
v53
o2
v54
v54
o2
v55
v55
o2
v56
v56
o2
v57
v57
o2
v58
v58
o2
v59
v59
o2
o54
10
o2
v50
v60
o2
v51
v61
o2
v52
v62
o2
v53
v63
o2
v54
v64
o2
v55
v65
o2
v56
v66
o2
v57
v67
o2
v58
v68
o2
v59
v69
o54
10
o2
v50
v60
o2
v51
v61
o2
v52
v62
o2
v53
v63
o2
v54
v64
o2
v55
v65
o2
v56
v66
o2
v57
v67
o2
v58
v68
o2
v59
v69
o2
o54
10
o2
v50
v70
o2
v51
v71
o2
v52
v72
o2
v53
v73
o2
v54
v74
o2
v55
v75
o2
v56
v76
o2
v57
v77
o2
v58
v78
o2
v59
v79
o54
10
o2
v50
v70
o2
v51
v71
o2
v52
v72
o2
v53
v73
o2
v54
v74
o2
v55
v75
o2
v56
v76
o2
v57
v77
o2
v58
v78
o2
v59
v79
o2
o54
10
o2
v50
v80
o2
v51
v81
o2
v52
v82
o2
v53
v83
o2
v54
v84
o2
v55
v85
o2
v56
v86
o2
v57
v87
o2
v58
v88
o2
v59
v89
o54
10
o2
v50
v80
o2
v51
v81
o2
v52
v82
o2
v53
v83
o2
v54
v84
o2
v55
v85
o2
v56
v86
o2
v57
v87
o2
v58
v88
o2
v59
v89
o2
o54
10
o2
v50
v90
o2
v51
v91
o2
v52
v92
o2
v53
v93
o2
v54
v94
o2
v55
v95
o2
v56
v96
o2
v57
v97
o2
v58
v98
o2
v59
v99
o54
10
o2
v50
v90
o2
v51
v91
o2
v52
v92
o2
v53
v93
o2
v54
v94
o2
v55
v95
o2
v56
v96
o2
v57
v97
o2
v58
v98
o2
v59
v99
o2
o0
n-1
o54
10
o2
v60
v60
o2
v61
v61
o2
v62
v62
o2
v63
v63
o2
v64
v64
o2
v65
v65
o2
v66
v66
o2
v67
v67
o2
v68
v68
o2
v69
v69
o0
n-1
o54
10
o2
v60
v60
o2
v61
v61
o2
v62
v62
o2
v63
v63
o2
v64
v64
o2
v65
v65
o2
v66
v66
o2
v67
v67
o2
v68
v68
o2
v69
v69
o2
o54
10
o2
v60
v70
o2
v61
v71
o2
v62
v72
o2
v63
v73
o2
v64
v74
o2
v65
v75
o2
v66
v76
o2
v67
v77
o2
v68
v78
o2
v69
v79
o54
10
o2
v60
v70
o2
v61
v71
o2
v62
v72
o2
v63
v73
o2
v64
v74
o2
v65
v75
o2
v66
v76
o2
v67
v77
o2
v68
v78
o2
v69
v79
o2
o54
10
o2
v60
v80
o2
v61
v81
o2
v62
v82
o2
v63
v83
o2
v64
v84
o2
v65
v85
o2
v66
v86
o2
v67
v87
o2
v68
v88
o2
v69
v89
o54
10
o2
v60
v80
o2
v61
v81
o2
v62
v82
o2
v63
v83
o2
v64
v84
o2
v65
v85
o2
v66
v86
o2
v67
v87
o2
v68
v88
o2
v69
v89
o2
o54
10
o2
v60
v90
o2
v61
v91
o2
v62
v92
o2
v63
v93
o2
v64
v94
o2
v65
v95
o2
v66
v96
o2
v67
v97
o2
v68
v98
o2
v69
v99
o54
10
o2
v60
v90
o2
v61
v91
o2
v62
v92
o2
v63
v93
o2
v64
v94
o2
v65
v95
o2
v66
v96
o2
v67
v97
o2
v68
v98
o2
v69
v99
o2
o0
n-1
o54
10
o2
v70
v70
o2
v71
v71
o2
v72
v72
o2
v73
v73
o2
v74
v74
o2
v75
v75
o2
v76
v76
o2
v77
v77
o2
v78
v78
o2
v79
v79
o0
n-1
o54
10
o2
v70
v70
o2
v71
v71
o2
v72
v72
o2
v73
v73
o2
v74
v74
o2
v75
v75
o2
v76
v76
o2
v77
v77
o2
v78
v78
o2
v79
v79
o2
o54
10
o2
v70
v80
o2
v71
v81
o2
v72
v82
o2
v73
v83
o2
v74
v84
o2
v75
v85
o2
v76
v86
o2
v77
v87
o2
v78
v88
o2
v79
v89
o54
10
o2
v70
v80
o2
v71
v81
o2
v72
v82
o2
v73
v83
o2
v74
v84
o2
v75
v85
o2
v76
v86
o2
v77
v87
o2
v78
v88
o2
v79
v89
o2
o54
10
o2
v70
v90
o2
v71
v91
o2
v72
v92
o2
v73
v93
o2
v74
v94
o2
v75
v95
o2
v76
v96
o2
v77
v97
o2
v78
v98
o2
v79
v99
o54
10
o2
v70
v90
o2
v71
v91
o2
v72
v92
o2
v73
v93
o2
v74
v94
o2
v75
v95
o2
v76
v96
o2
v77
v97
o2
v78
v98
o2
v79
v99
o2
o0
n-1
o54
10
o2
v80
v80
o2
v81
v81
o2
v82
v82
o2
v83
v83
o2
v84
v84
o2
v85
v85
o2
v86
v86
o2
v87
v87
o2
v88
v88
o2
v89
v89
o0
n-1
o54
10
o2
v80
v80
o2
v81
v81
o2
v82
v82
o2
v83
v83
o2
v84
v84
o2
v85
v85
o2
v86
v86
o2
v87
v87
o2
v88
v88
o2
v89
v89
o2
o54
10
o2
v80
v90
o2
v81
v91
o2
v82
v92
o2
v83
v93
o2
v84
v94
o2
v85
v95
o2
v86
v96
o2
v87
v97
o2
v88
v98
o2
v89
v99
o54
10
o2
v80
v90
o2
v81
v91
o2
v82
v92
o2
v83
v93
o2
v84
v94
o2
v85
v95
o2
v86
v96
o2
v87
v97
o2
v88
v98
o2
v89
v99
o2
o0
n-1
o54
10
o2
v90
v90
o2
v91
v91
o2
v92
v92
o2
v93
v93
o2
v94
v94
o2
v95
v95
o2
v96
v96
o2
v97
v97
o2
v98
v98
o2
v99
v99
o0
n-1
o54
10
o2
v90
v90
o2
v91
v91
o2
v92
v92
o2
v93
v93
o2
v94
v94
o2
v95
v95
o2
v96
v96
o2
v97
v97
o2
v98
v98
o2
v99
v99
o2
o0
n-0.2
o2
v0
v100
o0
n-0.2
o2
v0
v100
o2
o0
o2
v0
v101
o2
v1
v110
o0
o2
v0
v101
o2
v1
v110
o2
o54
3
o2
v0
v102
o2
v1
v111
o2
v2
v119
o54
3
o2
v0
v102
o2
v1
v111
o2
v2
v119
o2
o54
4
o2
v0
v103
o2
v1
v112
o2
v2
v120
o2
v3
v127
o54
4
o2
v0
v103
o2
v1
v112
o2
v2
v120
o2
v3
v127
o2
o54
5
o2
v0
v104
o2
v1
v113
o2
v2
v121
o2
v3
v128
o2
v4
v134
o54
5
o2
v0
v104
o2
v1
v113
o2
v2
v121
o2
v3
v128
o2
v4
v134
o2
o54
6
o2
v0
v105
o2
v1
v114
o2
v2
v122
o2
v3
v129
o2
v4
v135
o2
v5
v140
o54
6
o2
v0
v105
o2
v1
v114
o2
v2
v122
o2
v3
v129
o2
v4
v135
o2
v5
v140
o2
o54
7
o2
v0
v106
o2
v1
v115
o2
v2
v123
o2
v3
v130
o2
v4
v136
o2
v5
v141
o2
v6
v145
o54
7
o2
v0
v106
o2
v1
v115
o2
v2
v123
o2
v3
v130
o2
v4
v136
o2
v5
v141
o2
v6
v145
o2
o54
8
o2
v0
v107
o2
v1
v116
o2
v2
v124
o2
v3
v131
o2
v4
v137
o2
v5
v142
o2
v6
v146
o2
v7
v149
o54
8
o2
v0
v107
o2
v1
v116
o2
v2
v124
o2
v3
v131
o2
v4
v137
o2
v5
v142
o2
v6
v146
o2
v7
v149
o2
o54
9
o2
v0
v108
o2
v1
v117
o2
v2
v125
o2
v3
v132
o2
v4
v138
o2
v5
v143
o2
v6
v147
o2
v7
v150
o2
v8
v152
o54
9
o2
v0
v108
o2
v1
v117
o2
v2
v125
o2
v3
v132
o2
v4
v138
o2
v5
v143
o2
v6
v147
o2
v7
v150
o2
v8
v152
o2
o54
10
o2
v0
v109
o2
v1
v118
o2
v2
v126
o2
v3
v133
o2
v4
v139
o2
v5
v144
o2
v6
v148
o2
v7
v151
o2
v8
v153
o2
v9
v154
o54
10
o2
v0
v109
o2
v1
v118
o2
v2
v126
o2
v3
v133
o2
v4
v139
o2
v5
v144
o2
v6
v148
o2
v7
v151
o2
v8
v153
o2
v9
v154
o2
o0
n0.1
o2
v10
v100
o0
n0.1
o2
v10
v100
o2
o0
n-0.4
o0
o2
v10
v101
o2
v11
v110
o0
n-0.4
o0
o2
v10
v101
o2
v11
v110
o2
o54
4
n0.1
o2
v10
v102
o2
v11
v111
o2
v12
v119
o54
4
n0.1
o2
v10
v102
o2
v11
v111
o2
v12
v119
o2
o54
4
o2
v10
v103
o2
v11
v112
o2
v12
v120
o2
v13
v127
o54
4
o2
v10
v103
o2
v11
v112
o2
v12
v120
o2
v13
v127
o2
o54
5
o2
v10
v104
o2
v11
v113
o2
v12
v121
o2
v13
v128
o2
v14
v134
o54
5
o2
v10
v104
o2
v11
v113
o2
v12
v121
o2
v13
v128
o2
v14
v134
o2
o54
6
o2
v10
v105
o2
v11
v114
o2
v12
v122
o2
v13
v129
o2
v14
v135
o2
v15
v140
o54
6
o2
v10
v105
o2
v11
v114
o2
v12
v122
o2
v13
v129
o2
v14
v135
o2
v15
v140
o2
o54
7
o2
v10
v106
o2
v11
v115
o2
v12
v123
o2
v13
v130
o2
v14
v136
o2
v15
v141
o2
v16
v145
o54
7
o2
v10
v106
o2
v11
v115
o2
v12
v123
o2
v13
v130
o2
v14
v136
o2
v15
v141
o2
v16
v145
o2
o54
8
o2
v10
v107
o2
v11
v116
o2
v12
v124
o2
v13
v131
o2
v14
v137
o2
v15
v142
o2
v16
v146
o2
v17
v149
o54
8
o2
v10
v107
o2
v11
v116
o2
v12
v124
o2
v13
v131
o2
v14
v137
o2
v15
v142
o2
v16
v146
o2
v17
v149
o2
o54
9
o2
v10
v108
o2
v11
v117
o2
v12
v125
o2
v13
v132
o2
v14
v138
o2
v15
v143
o2
v16
v147
o2
v17
v150
o2
v18
v152
o54
9
o2
v10
v108
o2
v11
v117
o2
v12
v125
o2
v13
v132
o2
v14
v138
o2
v15
v143
o2
v16
v147
o2
v17
v150
o2
v18
v152
o2
o54
10
o2
v10
v109
o2
v11
v118
o2
v12
v126
o2
v13
v133
o2
v14
v139
o2
v15
v144
o2
v16
v148
o2
v17
v151
o2
v18
v153
o2
v19
v154
o54
10
o2
v10
v109
o2
v11
v118
o2
v12
v126
o2
v13
v133
o2
v14
v139
o2
v15
v144
o2
v16
v148
o2
v17
v151
o2
v18
v153
o2
v19
v154
o2
o2
v20
v100
o2
v20
v100
o2
o54
3
n0.2
o2
v20
v101
o2
v21
v110
o54
3
n0.2
o2
v20
v101
o2
v21
v110
o2
o0
n-0.6
o54
3
o2
v20
v102
o2
v21
v111
o2
v22
v119
o0
n-0.6
o54
3
o2
v20
v102
o2
v21
v111
o2
v22
v119
o2
o54
5
n0.2
o2
v20
v103
o2
v21
v112
o2
v22
v120
o2
v23
v127
o54
5
n0.2
o2
v20
v103
o2
v21
v112
o2
v22
v120
o2
v23
v127
o2
o54
5
o2
v20
v104
o2
v21
v113
o2
v22
v121
o2
v23
v128
o2
v24
v134
o54
5
o2
v20
v104
o2
v21
v113
o2
v22
v121
o2
v23
v128
o2
v24
v134
o2
o54
6
o2
v20
v105
o2
v21
v114
o2
v22
v122
o2
v23
v129
o2
v24
v135
o2
v25
v140
o54
6
o2
v20
v105
o2
v21
v114
o2
v22
v122
o2
v23
v129
o2
v24
v135
o2
v25
v140
o2
o54
7
o2
v20
v106
o2
v21
v115
o2
v22
v123
o2
v23
v130
o2
v24
v136
o2
v25
v141
o2
v26
v145
o54
7
o2
v20
v106
o2
v21
v115
o2
v22
v123
o2
v23
v130
o2
v24
v136
o2
v25
v141
o2
v26
v145
o2
o54
8
o2
v20
v107
o2
v21
v116
o2
v22
v124
o2
v23
v131
o2
v24
v137
o2
v25
v142
o2
v26
v146
o2
v27
v149
o54
8
o2
v20
v107
o2
v21
v116
o2
v22
v124
o2
v23
v131
o2
v24
v137
o2
v25
v142
o2
v26
v146
o2
v27
v149
o2
o54
9
o2
v20
v108
o2
v21
v117
o2
v22
v125
o2
v23
v132
o2
v24
v138
o2
v25
v143
o2
v26
v147
o2
v27
v150
o2
v28
v152
o54
9
o2
v20
v108
o2
v21
v117
o2
v22
v125
o2
v23
v132
o2
v24
v138
o2
v25
v143
o2
v26
v147
o2
v27
v150
o2
v28
v152
o2
o54
10
o2
v20
v109
o2
v21
v118
o2
v22
v126
o2
v23
v133
o2
v24
v139
o2
v25
v144
o2
v26
v148
o2
v27
v151
o2
v28
v153
o2
v29
v154
o54
10
o2
v20
v109
o2
v21
v118
o2
v22
v126
o2
v23
v133
o2
v24
v139
o2
v25
v144
o2
v26
v148
o2
v27
v151
o2
v28
v153
o2
v29
v154
o2
o2
v30
v100
o2
v30
v100
o2
o0
o2
v30
v101
o2
v31
v110
o0
o2
v30
v101
o2
v31
v110
o2
o54
4
n0.3
o2
v30
v102
o2
v31
v111
o2
v32
v119
o54
4
n0.3
o2
v30
v102
o2
v31
v111
o2
v32
v119
o2
o0
n-0.8
o54
4
o2
v30
v103
o2
v31
v112
o2
v32
v120
o2
v33
v127
o0
n-0.8
o54
4
o2
v30
v103
o2
v31
v112
o2
v32
v120
o2
v33
v127
o2
o54
6
n0.3
o2
v30
v104
o2
v31
v113
o2
v32
v121
o2
v33
v128
o2
v34
v134
o54
6
n0.3
o2
v30
v104
o2
v31
v113
o2
v32
v121
o2
v33
v128
o2
v34
v134
o2
o54
6
o2
v30
v105
o2
v31
v114
o2
v32
v122
o2
v33
v129
o2
v34
v135
o2
v35
v140
o54
6
o2
v30
v105
o2
v31
v114
o2
v32
v122
o2
v33
v129
o2
v34
v135
o2
v35
v140
o2
o54
7
o2
v30
v106
o2
v31
v115
o2
v32
v123
o2
v33
v130
o2
v34
v136
o2
v35
v141
o2
v36
v145
o54
7
o2
v30
v106
o2
v31
v115
o2
v32
v123
o2
v33
v130
o2
v34
v136
o2
v35
v141
o2
v36
v145
o2
o54
8
o2
v30
v107
o2
v31
v116
o2
v32
v124
o2
v33
v131
o2
v34
v137
o2
v35
v142
o2
v36
v146
o2
v37
v149
o54
8
o2
v30
v107
o2
v31
v116
o2
v32
v124
o2
v33
v131
o2
v34
v137
o2
v35
v142
o2
v36
v146
o2
v37
v149
o2
o54
9
o2
v30
v108
o2
v31
v117
o2
v32
v125
o2
v33
v132
o2
v34
v138
o2
v35
v143
o2
v36
v147
o2
v37
v150
o2
v38
v152
o54
9
o2
v30
v108
o2
v31
v117
o2
v32
v125
o2
v33
v132
o2
v34
v138
o2
v35
v143
o2
v36
v147
o2
v37
v150
o2
v38
v152
o2
o54
10
o2
v30
v109
o2
v31
v118
o2
v32
v126
o2
v33
v133
o2
v34
v139
o2
v35
v144
o2
v36
v148
o2
v37
v151
o2
v38
v153
o2
v39
v154
o54
10
o2
v30
v109
o2
v31
v118
o2
v32
v126
o2
v33
v133
o2
v34
v139
o2
v35
v144
o2
v36
v148
o2
v37
v151
o2
v38
v153
o2
v39
v154
o2
o2
v40
v100
o2
v40
v100
o2
o0
o2
v40
v101
o2
v41
v110
o0
o2
v40
v101
o2
v41
v110
o2
o54
3
o2
v40
v102
o2
v41
v111
o2
v42
v119
o54
3
o2
v40
v102
o2
v41
v111
o2
v42
v119
o2
o54
5
n0.4
o2
v40
v103
o2
v41
v112
o2
v42
v120
o2
v43
v127
o54
5
n0.4
o2
v40
v103
o2
v41
v112
o2
v42
v120
o2
v43
v127
o2
o0
n-1
o54
5
o2
v40
v104
o2
v41
v113
o2
v42
v121
o2
v43
v128
o2
v44
v134
o0
n-1
o54
5
o2
v40
v104
o2
v41
v113
o2
v42
v121
o2
v43
v128
o2
v44
v134
o2
o54
7
n0.4
o2
v40
v105
o2
v41
v114
o2
v42
v122
o2
v43
v129
o2
v44
v135
o2
v45
v140
o54
7
n0.4
o2
v40
v105
o2
v41
v114
o2
v42
v122
o2
v43
v129
o2
v44
v135
o2
v45
v140
o2
o54
7
o2
v40
v106
o2
v41
v115
o2
v42
v123
o2
v43
v130
o2
v44
v136
o2
v45
v141
o2
v46
v145
o54
7
o2
v40
v106
o2
v41
v115
o2
v42
v123
o2
v43
v130
o2
v44
v136
o2
v45
v141
o2
v46
v145
o2
o54
8
o2
v40
v107
o2
v41
v116
o2
v42
v124
o2
v43
v131
o2
v44
v137
o2
v45
v142
o2
v46
v146
o2
v47
v149
o54
8
o2
v40
v107
o2
v41
v116
o2
v42
v124
o2
v43
v131
o2
v44
v137
o2
v45
v142
o2
v46
v146
o2
v47
v149
o2
o54
9
o2
v40
v108
o2
v41
v117
o2
v42
v125
o2
v43
v132
o2
v44
v138
o2
v45
v143
o2
v46
v147
o2
v47
v150
o2
v48
v152
o54
9
o2
v40
v108
o2
v41
v117
o2
v42
v125
o2
v43
v132
o2
v44
v138
o2
v45
v143
o2
v46
v147
o2
v47
v150
o2
v48
v152
o2
o54
10
o2
v40
v109
o2
v41
v118
o2
v42
v126
o2
v43
v133
o2
v44
v139
o2
v45
v144
o2
v46
v148
o2
v47
v151
o2
v48
v153
o2
v49
v154
o54
10
o2
v40
v109
o2
v41
v118
o2
v42
v126
o2
v43
v133
o2
v44
v139
o2
v45
v144
o2
v46
v148
o2
v47
v151
o2
v48
v153
o2
v49
v154
o2
o2
v50
v100
o2
v50
v100
o2
o0
o2
v50
v101
o2
v51
v110
o0
o2
v50
v101
o2
v51
v110
o2
o54
3
o2
v50
v102
o2
v51
v111
o2
v52
v119
o54
3
o2
v50
v102
o2
v51
v111
o2
v52
v119
o2
o54
4
o2
v50
v103
o2
v51
v112
o2
v52
v120
o2
v53
v127
o54
4
o2
v50
v103
o2
v51
v112
o2
v52
v120
o2
v53
v127
o2
o54
6
n0.5
o2
v50
v104
o2
v51
v113
o2
v52
v121
o2
v53
v128
o2
v54
v134
o54
6
n0.5
o2
v50
v104
o2
v51
v113
o2
v52
v121
o2
v53
v128
o2
v54
v134
o2
o0
n-1.2
o54
6
o2
v50
v105
o2
v51
v114
o2
v52
v122
o2
v53
v129
o2
v54
v135
o2
v55
v140
o0
n-1.2
o54
6
o2
v50
v105
o2
v51
v114
o2
v52
v122
o2
v53
v129
o2
v54
v135
o2
v55
v140
o2
o54
8
n0.5
o2
v50
v106
o2
v51
v115
o2
v52
v123
o2
v53
v130
o2
v54
v136
o2
v55
v141
o2
v56
v145
o54
8
n0.5
o2
v50
v106
o2
v51
v115
o2
v52
v123
o2
v53
v130
o2
v54
v136
o2
v55
v141
o2
v56
v145
o2
o54
8
o2
v50
v107
o2
v51
v116
o2
v52
v124
o2
v53
v131
o2
v54
v137
o2
v55
v142
o2
v56
v146
o2
v57
v149
o54
8
o2
v50
v107
o2
v51
v116
o2
v52
v124
o2
v53
v131
o2
v54
v137
o2
v55
v142
o2
v56
v146
o2
v57
v149
o2
o54
9
o2
v50
v108
o2
v51
v117
o2
v52
v125
o2
v53
v132
o2
v54
v138
o2
v55
v143
o2
v56
v147
o2
v57
v150
o2
v58
v152
o54
9
o2
v50
v108
o2
v51
v117
o2
v52
v125
o2
v53
v132
o2
v54
v138
o2
v55
v143
o2
v56
v147
o2
v57
v150
o2
v58
v152
o2
o54
10
o2
v50
v109
o2
v51
v118
o2
v52
v126
o2
v53
v133
o2
v54
v139
o2
v55
v144
o2
v56
v148
o2
v57
v151
o2
v58
v153
o2
v59
v154
o54
10
o2
v50
v109
o2
v51
v118
o2
v52
v126
o2
v53
v133
o2
v54
v139
o2
v55
v144
o2
v56
v148
o2
v57
v151
o2
v58
v153
o2
v59
v154
o2
o2
v60
v100
o2
v60
v100
o2
o0
o2
v60
v101
o2
v61
v110
o0
o2
v60
v101
o2
v61
v110
o2
o54
3
o2
v60
v102
o2
v61
v111
o2
v62
v119
o54
3
o2
v60
v102
o2
v61
v111
o2
v62
v119
o2
o54
4
o2
v60
v103
o2
v61
v112
o2
v62
v120
o2
v63
v127
o54
4
o2
v60
v103
o2
v61
v112
o2
v62
v120
o2
v63
v127
o2
o54
5
o2
v60
v104
o2
v61
v113
o2
v62
v121
o2
v63
v128
o2
v64
v134
o54
5
o2
v60
v104
o2
v61
v113
o2
v62
v121
o2
v63
v128
o2
v64
v134
o2
o54
7
n0.6
o2
v60
v105
o2
v61
v114
o2
v62
v122
o2
v63
v129
o2
v64
v135
o2
v65
v140
o54
7
n0.6
o2
v60
v105
o2
v61
v114
o2
v62
v122
o2
v63
v129
o2
v64
v135
o2
v65
v140
o2
o0
n-1.4
o54
7
o2
v60
v106
o2
v61
v115
o2
v62
v123
o2
v63
v130
o2
v64
v136
o2
v65
v141
o2
v66
v145
o0
n-1.4
o54
7
o2
v60
v106
o2
v61
v115
o2
v62
v123
o2
v63
v130
o2
v64
v136
o2
v65
v141
o2
v66
v145
o2
o54
9
n0.6
o2
v60
v107
o2
v61
v116
o2
v62
v124
o2
v63
v131
o2
v64
v137
o2
v65
v142
o2
v66
v146
o2
v67
v149
o54
9
n0.6
o2
v60
v107
o2
v61
v116
o2
v62
v124
o2
v63
v131
o2
v64
v137
o2
v65
v142
o2
v66
v146
o2
v67
v149
o2
o54
9
o2
v60
v108
o2
v61
v117
o2
v62
v125
o2
v63
v132
o2
v64
v138
o2
v65
v143
o2
v66
v147
o2
v67
v150
o2
v68
v152
o54
9
o2
v60
v108
o2
v61
v117
o2
v62
v125
o2
v63
v132
o2
v64
v138
o2
v65
v143
o2
v66
v147
o2
v67
v150
o2
v68
v152
o2
o54
10
o2
v60
v109
o2
v61
v118
o2
v62
v126
o2
v63
v133
o2
v64
v139
o2
v65
v144
o2
v66
v148
o2
v67
v151
o2
v68
v153
o2
v69
v154
o54
10
o2
v60
v109
o2
v61
v118
o2
v62
v126
o2
v63
v133
o2
v64
v139
o2
v65
v144
o2
v66
v148
o2
v67
v151
o2
v68
v153
o2
v69
v154
o2
o2
v70
v100
o2
v70
v100
o2
o0
o2
v70
v101
o2
v71
v110
o0
o2
v70
v101
o2
v71
v110
o2
o54
3
o2
v70
v102
o2
v71
v111
o2
v72
v119
o54
3
o2
v70
v102
o2
v71
v111
o2
v72
v119
o2
o54
4
o2
v70
v103
o2
v71
v112
o2
v72
v120
o2
v73
v127
o54
4
o2
v70
v103
o2
v71
v112
o2
v72
v120
o2
v73
v127
o2
o54
5
o2
v70
v104
o2
v71
v113
o2
v72
v121
o2
v73
v128
o2
v74
v134
o54
5
o2
v70
v104
o2
v71
v113
o2
v72
v121
o2
v73
v128
o2
v74
v134
o2
o54
6
o2
v70
v105
o2
v71
v114
o2
v72
v122
o2
v73
v129
o2
v74
v135
o2
v75
v140
o54
6
o2
v70
v105
o2
v71
v114
o2
v72
v122
o2
v73
v129
o2
v74
v135
o2
v75
v140
o2
o54
8
n0.7
o2
v70
v106
o2
v71
v115
o2
v72
v123
o2
v73
v130
o2
v74
v136
o2
v75
v141
o2
v76
v145
o54
8
n0.7
o2
v70
v106
o2
v71
v115
o2
v72
v123
o2
v73
v130
o2
v74
v136
o2
v75
v141
o2
v76
v145
o2
o0
n-1.6
o54
8
o2
v70
v107
o2
v71
v116
o2
v72
v124
o2
v73
v131
o2
v74
v137
o2
v75
v142
o2
v76
v146
o2
v77
v149
o0
n-1.6
o54
8
o2
v70
v107
o2
v71
v116
o2
v72
v124
o2
v73
v131
o2
v74
v137
o2
v75
v142
o2
v76
v146
o2
v77
v149
o2
o54
10
n0.7
o2
v70
v108
o2
v71
v117
o2
v72
v125
o2
v73
v132
o2
v74
v138
o2
v75
v143
o2
v76
v147
o2
v77
v150
o2
v78
v152
o54
10
n0.7
o2
v70
v108
o2
v71
v117
o2
v72
v125
o2
v73
v132
o2
v74
v138
o2
v75
v143
o2
v76
v147
o2
v77
v150
o2
v78
v152
o2
o54
10
o2
v70
v109
o2
v71
v118
o2
v72
v126
o2
v73
v133
o2
v74
v139
o2
v75
v144
o2
v76
v148
o2
v77
v151
o2
v78
v153
o2
v79
v154
o54
10
o2
v70
v109
o2
v71
v118
o2
v72
v126
o2
v73
v133
o2
v74
v139
o2
v75
v144
o2
v76
v148
o2
v77
v151
o2
v78
v153
o2
v79
v154
o2
o2
v80
v100
o2
v80
v100
o2
o0
o2
v80
v101
o2
v81
v110
o0
o2
v80
v101
o2
v81
v110
o2
o54
3
o2
v80
v102
o2
v81
v111
o2
v82
v119
o54
3
o2
v80
v102
o2
v81
v111
o2
v82
v119
o2
o54
4
o2
v80
v103
o2
v81
v112
o2
v82
v120
o2
v83
v127
o54
4
o2
v80
v103
o2
v81
v112
o2
v82
v120
o2
v83
v127
o2
o54
5
o2
v80
v104
o2
v81
v113
o2
v82
v121
o2
v83
v128
o2
v84
v134
o54
5
o2
v80
v104
o2
v81
v113
o2
v82
v121
o2
v83
v128
o2
v84
v134
o2
o54
6
o2
v80
v105
o2
v81
v114
o2
v82
v122
o2
v83
v129
o2
v84
v135
o2
v85
v140
o54
6
o2
v80
v105
o2
v81
v114
o2
v82
v122
o2
v83
v129
o2
v84
v135
o2
v85
v140
o2
o54
7
o2
v80
v106
o2
v81
v115
o2
v82
v123
o2
v83
v130
o2
v84
v136
o2
v85
v141
o2
v86
v145
o54
7
o2
v80
v106
o2
v81
v115
o2
v82
v123
o2
v83
v130
o2
v84
v136
o2
v85
v141
o2
v86
v145
o2
o54
9
n0.8
o2
v80
v107
o2
v81
v116
o2
v82
v124
o2
v83
v131
o2
v84
v137
o2
v85
v142
o2
v86
v146
o2
v87
v149
o54
9
n0.8
o2
v80
v107
o2
v81
v116
o2
v82
v124
o2
v83
v131
o2
v84
v137
o2
v85
v142
o2
v86
v146
o2
v87
v149
o2
o0
n-1.8
o54
9
o2
v80
v108
o2
v81
v117
o2
v82
v125
o2
v83
v132
o2
v84
v138
o2
v85
v143
o2
v86
v147
o2
v87
v150
o2
v88
v152
o0
n-1.8
o54
9
o2
v80
v108
o2
v81
v117
o2
v82
v125
o2
v83
v132
o2
v84
v138
o2
v85
v143
o2
v86
v147
o2
v87
v150
o2
v88
v152
o2
o54
11
n0.8
o2
v80
v109
o2
v81
v118
o2
v82
v126
o2
v83
v133
o2
v84
v139
o2
v85
v144
o2
v86
v148
o2
v87
v151
o2
v88
v153
o2
v89
v154
o54
11
n0.8
o2
v80
v109
o2
v81
v118
o2
v82
v126
o2
v83
v133
o2
v84
v139
o2
v85
v144
o2
v86
v148
o2
v87
v151
o2
v88
v153
o2
v89
v154
o2
o2
v90
v100
o2
v90
v100
o2
o0
o2
v90
v101
o2
v91
v110
o0
o2
v90
v101
o2
v91
v110
o2
o54
3
o2
v90
v102
o2
v91
v111
o2
v92
v119
o54
3
o2
v90
v102
o2
v91
v111
o2
v92
v119
o2
o54
4
o2
v90
v103
o2
v91
v112
o2
v92
v120
o2
v93
v127
o54
4
o2
v90
v103
o2
v91
v112
o2
v92
v120
o2
v93
v127
o2
o54
5
o2
v90
v104
o2
v91
v113
o2
v92
v121
o2
v93
v128
o2
v94
v134
o54
5
o2
v90
v104
o2
v91
v113
o2
v92
v121
o2
v93
v128
o2
v94
v134
o2
o54
6
o2
v90
v105
o2
v91
v114
o2
v92
v122
o2
v93
v129
o2
v94
v135
o2
v95
v140
o54
6
o2
v90
v105
o2
v91
v114
o2
v92
v122
o2
v93
v129
o2
v94
v135
o2
v95
v140
o2
o54
7
o2
v90
v106
o2
v91
v115
o2
v92
v123
o2
v93
v130
o2
v94
v136
o2
v95
v141
o2
v96
v145
o54
7
o2
v90
v106
o2
v91
v115
o2
v92
v123
o2
v93
v130
o2
v94
v136
o2
v95
v141
o2
v96
v145
o2
o54
8
o2
v90
v107
o2
v91
v116
o2
v92
v124
o2
v93
v131
o2
v94
v137
o2
v95
v142
o2
v96
v146
o2
v97
v149
o54
8
o2
v90
v107
o2
v91
v116
o2
v92
v124
o2
v93
v131
o2
v94
v137
o2
v95
v142
o2
v96
v146
o2
v97
v149
o2
o54
10
n0.9
o2
v90
v108
o2
v91
v117
o2
v92
v125
o2
v93
v132
o2
v94
v138
o2
v95
v143
o2
v96
v147
o2
v97
v150
o2
v98
v152
o54
10
n0.9
o2
v90
v108
o2
v91
v117
o2
v92
v125
o2
v93
v132
o2
v94
v138
o2
v95
v143
o2
v96
v147
o2
v97
v150
o2
v98
v152
o2
o0
n-20
o54
10
o2
v90
v109
o2
v91
v118
o2
v92
v126
o2
v93
v133
o2
v94
v139
o2
v95
v144
o2
v96
v148
o2
v97
v151
o2
v98
v153
o2
v99
v154
o0
n-20
o54
10
o2
v90
v109
o2
v91
v118
o2
v92
v126
o2
v93
v133
o2
v94
v139
o2
v95
v144
o2
v96
v148
o2
v97
v151
o2
v98
v153
o2
v99
v154
k154
0
0
0
0
0
0
0
0
0
0
0
0
0
0
0
0
0
0
0
0
0
0
0
0
0
0
0
0
0
0
0
0
0
0
0
0
0
0
0
0
0
0
0
0
0
0
0
0
0
0
0
0
0
0
0
0
0
0
0
0
0
0
0
0
0
0
0
0
0
0
0
0
0
0
0
0
0
0
0
0
0
0
0
0
0
0
0
0
0
0
0
0
0
0
0
0
0
0
0
0
0
0
0
0
0
0
0
0
0
0
0
0
0
0
0
0
0
0
0
0
0
0
0
0
0
0
0
0
0
0
0
0
0
0
0
0
0
0
0
0
0
0
0
0
0
0
0
0
0
0
0
0
0
0
G0 155
0 0
1 0
2 0
3 0
4 0
5 0
6 0
7 0
8 0
9 0
10 0
11 0
12 0
13 0
14 0
15 0
16 0
17 0
18 0
19 0
20 0
21 0
22 0
23 0
24 0
25 0
26 0
27 0
28 0
29 0
30 0
31 0
32 0
33 0
34 0
35 0
36 0
37 0
38 0
39 0
40 0
41 0
42 0
43 0
44 0
45 0
46 0
47 0
48 0
49 0
50 0
51 0
52 0
53 0
54 0
55 0
56 0
57 0
58 0
59 0
60 0
61 0
62 0
63 0
64 0
65 0
66 0
67 0
68 0
69 0
70 0
71 0
72 0
73 0
74 0
75 0
76 0
77 0
78 0
79 0
80 0
81 0
82 0
83 0
84 0
85 0
86 0
87 0
88 0
89 0
90 0
91 0
92 0
93 0
94 0
95 0
96 0
97 0
98 0
99 0
100 0
101 0
102 0
103 0
104 0
105 0
106 0
107 0
108 0
109 0
110 0
111 0
112 0
113 0
114 0
115 0
116 0
117 0
118 0
119 0
120 0
121 0
122 0
123 0
124 0
125 0
126 0
127 0
128 0
129 0
130 0
131 0
132 0
133 0
134 0
135 0
136 0
137 0
138 0
139 0
140 0
141 0
142 0
143 0
144 0
145 0
146 0
147 0
148 0
149 0
150 0
151 0
152 0
153 0
154 0
